(set-logic QF_LIA)
(set-info :ran/ran15.smt2)
(set-info :smt-lib-version 2.0)
(declare-fun x0 () Int)
(declare-fun x1 () Int)
(declare-fun x2 () Int)
(declare-fun x3 () Int)
(declare-fun x4 () Int)
(declare-fun x5 () Int)
(declare-fun x6 () Int)
(declare-fun x7 () Int)
(declare-fun x8 () Int)
(declare-fun x9 () Int)
(declare-fun x10 () Int)
(declare-fun x11 () Int)
(declare-fun x12 () Int)
(declare-fun x13 () Int)
(declare-fun x14 () Int)
(define-fun ie0 () Bool (<= (+ (* (- 85) x10) (* (- 18) x8) (* (- 1) x8) ) 18))
(define-fun ie1 () Bool (<= (+ (* (- 79) x13) (* (- 97) x3) (* (- 30) x3) (* 86 x11) ) 76))
(define-fun ie2 () Bool (<= (+ (* (- 86) x9) (* 69 x13) ) 15))
(define-fun ie3 () Bool (<= (+ (* 28 x13) (* 85 x5) (* 70 x9) (* 31 x11) ) 36))
(define-fun ie4 () Bool (<= (+ (* 21 x10) (* (- 97) x14) (* 24 x0) (* 20 x9) ) (- 35)))
(define-fun ie5 () Bool (<= (+ (* 33 x8) (* 94 x11) ) 66))
(define-fun ie6 () Bool (<= (+ (* 72 x5) (* 33 x14) (* 66 x8) (* 32 x6) ) 19))
(define-fun ie7 () Bool (<= (+ (* 2 x12) (* (- 59) x10) (* 20 x4) ) 77))
(define-fun ie8 () Bool (<= (+ (* 53 x1) (* 0 x0) (* 81 x11) (* 68 x1) ) 21))
(define-fun ie9 () Bool (<= (+ (* 27 x2) (* (- 26) x2) (* 75 x14) (* (- 9) x13) ) 72))
(define-fun ie10 () Bool (<= (+ (* 96 x13) (* (- 69) x3) ) 98))
(define-fun ie11 () Bool (<= (+ (* (- 60) x13) (* 38 x2) (* (- 59) x11) ) 18))
(define-fun ie12 () Bool (<= (+ (* (- 31) x14) (* (- 40) x2) (* 17 x13) (* 51 x12) ) (- 79)))
(define-fun ie13 () Bool (<= (+ (* (- 51) x8) (* 36 x7) ) (- 59)))
(define-fun ie14 () Bool (<= (+ (* (- 32) x2) (* 4 x1) (* (- 13) x4) ) (- 25)))
(assert ie0)
(assert ie1)
(assert ie2)
(assert ie3)
(assert ie4)
(assert ie5)
(assert ie6)
(assert ie7)
(assert ie8)
(assert ie9)
(assert ie10)
(assert ie11)
(assert ie12)
(assert ie13)
(assert ie14)
(check-sat)
(exit)
